Route #1: 1 15 45 2 37 9 35 26 10 1
Route #2: 1 28 36 34 25 41 12 42 1
Route #3: 1 3 20 17 11 21 8 22 24 31 27 1
Route #4: 1 38 14 18 32 30 1
Route #5: 1 7 43 23 29 33 44 4 1
Route #6: 1 39 19 13 5 40 6 16 1
cost 2621.3801927431277